GeneratedTests/Random_10/Random_10_20.tsp
NAME: Random_10_20
TYPE: TSP
DIMENSION: 10
EDGE_WEIGHT_TYPE: EUC_2D
NODE_COORD_SECTION
1 7.7840242 14.193882
2 22.451263 28.531452
3 28.420128 20.647415
4 22.300785 5.265073
5 28.16778 10.458075
6 2.0451593 25.666431
7 4.5982037 26.889389
8 16.182602 7.476454
9 1.2815559 28.831078
10 19.831741 2.818367
EOF
