GeneratedTests/Random_10/Random_10_20.txt
NAME: Random_10_20
TYPE: TSP
DIMENSION: 10
EDGE_WEIGHT_TYPE: EUC_2D
NODE_COORD_SECTION
1 9.331026 29.236122
2 12.382468 7.707506
3 1.020146 28.098324
4 29.021868 22.137608
5 3.3942497 14.208941
6 7.400045 18.416847
7 4.757613 23.585499
8 21.782555 8.671285
9 17.005566 14.628741
10 15.142191 26.482944
EOF
